
Set parameter LogFile to value "res/logfile/blp-ic98log.txt"

Gurobi 11.0.1 (win64) logging started Sat Mar 16 22:22:55 2024

Set parameter LogFile to value "res/logfile/blp-ic98log.txt"
Gurobi Optimizer version 11.0.1 build v11.0.1rc0 (win64 - Windows 11.0 (22621.2))

CPU model: AMD Ryzen Threadripper PRO 5975WX 32-Cores, instruction set [SSE2|AVX|AVX2]
Thread count: 32 physical cores, 64 logical processors, using up to 10 threads

Optimize a model with 717 rows, 13640 columns and 191947 nonzeros
Model fingerprint: 0xc500e06c
Variable types: 90 continuous, 13550 integer (13550 binary)
Coefficient statistics:
  Matrix range     [1e+00, 2e+03]
  Objective range  [1e+00, 1e+00]
  Bounds range     [1e+00, 6e+04]
  RHS range        [1e+00, 1e+00]
Presolve removed 8 rows and 977 columns
Presolve time: 0.23s
Presolved: 709 rows, 12663 columns, 153517 nonzeros
Variable types: 0 continuous, 12663 integer (12630 binary)
Found heuristic solution: objective 8722.5818880

Root relaxation: objective 4.374534e+03, 299 iterations, 0.03 seconds (0.07 work units)

    Nodes    |    Current Node    |     Objective Bounds      |     Work
 Expl Unexpl |  Obj  Depth IntInf | Incumbent    BestBd   Gap | It/Node Time

     0     0 4374.53424    0   56 8722.58189 4374.53424  49.8%     -    0s
H    0     0                    5661.5198624 4374.53424  22.7%     -    0s
H    0     0                    5453.7056944 4374.53424  19.8%     -    0s
H    0     0                    4923.5479888 4374.53424  11.2%     -    0s
H    0     0                    4900.9685136 4374.53424  10.7%     -    0s
     0     0 4390.42921    0   60 4900.96851 4390.42921  10.4%     -    0s
H    0     0                    4567.1752128 4391.94303  3.84%     -    1s
     0     0 4393.72429    0   66 4567.17521 4393.72429  3.80%     -    1s
H    0     0                    4543.0740192 4400.31803  3.14%     -    1s
     0     0 4400.31803    0   68 4543.07402 4400.31803  3.14%     -    1s
     0     0 4404.67092    0   66 4543.07402 4404.67092  3.05%     -    1s
     0     0 4404.68920    0   67 4543.07402 4404.68920  3.05%     -    1s
     0     0 4419.95710    0   68 4543.07402 4419.95710  2.71%     -    2s
     0     0 4419.95710    0   56 4543.07402 4419.95710  2.71%     -    2s
     0     0 4419.95710    0   69 4543.07402 4419.95710  2.71%     -    2s
     0     0 4419.95710    0   72 4543.07402 4419.95710  2.71%     -    3s
     0     0 4419.95710    0   73 4543.07402 4419.95710  2.71%     -    3s
     0     0 4419.95710    0   72 4543.07402 4419.95710  2.71%     -    3s
     0     0 4419.95710    0   73 4543.07402 4419.95710  2.71%     -    3s
     0     0 4419.95710    0   75 4543.07402 4419.95710  2.71%     -    3s
     0     0 4421.19915    0   77 4543.07402 4421.19915  2.68%     -    3s
     0     0 4426.63041    0   82 4543.07402 4426.63041  2.56%     -    3s
     0     0 4432.29495    0   76 4543.07402 4432.29495  2.44%     -    3s
     0     0 4432.55812    0   83 4543.07402 4432.55812  2.43%     -    3s
     0     0 4433.20866    0   86 4543.07402 4433.20866  2.42%     -    3s
     0     0 4433.25358    0   87 4543.07402 4433.25358  2.42%     -    3s
     0     0 4433.32965    0   89 4543.07402 4433.32965  2.42%     -    3s
     0     0 4435.83614    0   90 4543.07402 4435.83614  2.36%     -    3s
     0     0 4440.40395    0   88 4543.07402 4440.40395  2.26%     -    4s
     0     0 4441.68721    0   89 4543.07402 4441.68721  2.23%     -    4s
     0     0 4442.52174    0   91 4543.07402 4442.52174  2.21%     -    4s
     0     0 4442.52346    0   91 4543.07402 4442.52346  2.21%     -    4s
     0     0 4449.14164    0   92 4543.07402 4449.14164  2.07%     -    4s
     0     0 4451.05834    0   89 4543.07402 4451.05834  2.03%     -    4s
     0     0 4451.78605    0   91 4543.07402 4451.78605  2.01%     -    4s
     0     0 4451.93282    0   89 4543.07402 4451.93282  2.01%     -    4s
     0     0 4452.00084    0   90 4543.07402 4452.00084  2.00%     -    4s
     0     0 4452.51136    0   92 4543.07402 4452.51136  1.99%     -    4s
     0     0 4452.52665    0   91 4543.07402 4452.52665  1.99%     -    4s
     0     0 4454.34290    0   90 4543.07402 4454.34290  1.95%     -    4s
     0     0 4455.92668    0   91 4543.07402 4455.92668  1.92%     -    4s
     0     0 4456.09855    0   94 4543.07402 4456.09855  1.91%     -    4s
     0     0 4456.41366    0   99 4543.07402 4456.41366  1.91%     -    4s
     0     0 4456.58386    0  101 4543.07402 4456.58386  1.90%     -    4s
     0     0 4456.83317    0   95 4543.07402 4456.83317  1.90%     -    4s
     0     0 4456.85735    0   98 4543.07402 4456.85735  1.90%     -    4s
     0     0 4458.10720    0   99 4543.07402 4458.10720  1.87%     -    5s
     0     0 4458.10720    0   55 4543.07402 4458.10720  1.87%     -    5s
     0     0 4458.10720    0   67 4543.07402 4458.10720  1.87%     -    5s
     0     0 4458.10720    0   68 4543.07402 4458.10720  1.87%     -    5s
     0     0 4458.10720    0   80 4543.07402 4458.10720  1.87%     -    5s
     0     0 4458.10720    0   88 4543.07402 4458.10720  1.87%     -    5s
     0     0 4458.10720    0   91 4543.07402 4458.10720  1.87%     -    5s
     0     0 4458.10720    0   95 4543.07402 4458.10720  1.87%     -    5s
     0     0 4458.10720    0   95 4543.07402 4458.10720  1.87%     -    5s
     0     0 4458.10720    0  100 4543.07402 4458.10720  1.87%     -    5s
     0     0 4458.10720    0   98 4543.07402 4458.10720  1.87%     -    6s
     0     0 4458.10720    0  103 4543.07402 4458.10720  1.87%     -    6s
H    0     0                    4531.2358272 4458.10720  1.61%     -    6s
     0     0 4458.10720    0  100 4531.23583 4458.10720  1.61%     -    6s
     0     0 4460.38620    0   88 4531.23583 4460.38620  1.56%     -    6s
     0     0 4461.23620    0   92 4531.23583 4461.23620  1.54%     -    6s
     0     0 4461.23620    0   95 4531.23583 4461.23620  1.54%     -    6s
     0     0 4461.86447    0   95 4531.23583 4461.86447  1.53%     -    6s
     0     0 4461.86447    0   57 4531.23583 4461.86447  1.53%     -    7s
     0     0 4461.86447    0   69 4531.23583 4461.86447  1.53%     -    7s
     0     0 4461.86447    0   73 4531.23583 4461.86447  1.53%     -    7s
     0     0 4461.86447    0   81 4531.23583 4461.86447  1.53%     -    7s
     0     0 4461.86447    0   88 4531.23583 4461.86447  1.53%     -    7s
     0     0 4461.86447    0   91 4531.23583 4461.86447  1.53%     -    7s
     0     0 4461.86447    0   92 4531.23583 4461.86447  1.53%     -    7s
     0     0 4461.86447    0   92 4531.23583 4461.86447  1.53%     -    7s
     0     0 4461.86447    0   94 4531.23583 4461.86447  1.53%     -    7s
     0     0 4461.86447    0   94 4531.23583 4461.86447  1.53%     -    7s
     0     0 4462.08920    0   97 4531.23583 4462.08920  1.53%     -    8s
     0     0 4462.61871    0   98 4531.23583 4462.61871  1.51%     -    8s
     0     0 4462.62643    0  101 4531.23583 4462.62643  1.51%     -    8s
H    0     0                    4504.4258016 4462.62643  0.93%     -    9s
     0     0 4463.64595    0   99 4504.42580 4463.64595  0.91%     -    9s
     0     0 4463.64595    0   56 4504.42580 4463.64595  0.91%     -    9s
     0     0 4463.64595    0   77 4504.42580 4463.64595  0.91%     -    9s
     0     0 4463.64595    0   77 4504.42580 4463.64595  0.91%     -    9s
     0     0 4463.64595    0   77 4504.42580 4463.64595  0.91%     -    9s
     0     0 4463.64595    0   83 4504.42580 4463.64595  0.91%     -    9s
     0     0 4463.64595    0   92 4504.42580 4463.64595  0.91%     -    9s
     0     0 4463.64595    0   91 4504.42580 4463.64595  0.91%     -    9s
     0     0 4463.64595    0   96 4504.42580 4463.64595  0.91%     -    9s
     0     0 4463.76318    0   96 4504.42580 4463.76318  0.90%     -   10s
     0     0 4464.11119    0   99 4504.42580 4464.11119  0.90%     -   10s
     0     0 4464.14604    0  105 4504.42580 4464.14604  0.89%     -   10s
     0     0 4464.95393    0   93 4504.42580 4464.95393  0.88%     -   10s
     0     0 4465.24180    0  105 4504.42580 4465.24180  0.87%     -   10s
     0     0 4465.31658    0  107 4504.42580 4465.31658  0.87%     -   10s
     0     0 4465.72460    0  113 4504.42580 4465.72460  0.86%     -   11s
     0     0 4465.74746    0  112 4504.42580 4465.74746  0.86%     -   11s
     0     2 4469.82760    0  112 4504.42580 4469.82760  0.77%     -   12s
H   35    46                    4492.2684352 4469.82760  0.50%  80.0   13s
*  548   442              60    4492.1331520 4469.82760  0.50%  31.8   13s
*  747   628              35    4491.4475840 4469.82760  0.48%  29.6   13s
  2442  1441 4487.24737   42   68 4491.44758 4475.77548  0.35%  33.2   15s

Cutting planes:
  Gomory: 6
  Cover: 3
  Implied bound: 1
  MIR: 79
  StrongCG: 13
  Flow cover: 20
  GUB cover: 1
  Zero half: 12

Explored 6312 nodes (240142 simplex iterations) in 19.27 seconds (32.75 work units)
Thread count was 10 (of 64 available processors)

Solution count 10: 4491.45 4492.13 4492.27 ... 5453.71

Optimal solution found (tolerance 1.00e-04)
Best objective 4.491447584000e+03, best bound 4.491447584000e+03, gap 0.0000%

User-callback calls 14377, time in user-callback 0.00 sec
